76
125
100	11
99	12
98	18
97	18
96	17
95	10
94	12
93	15
92	15
91	14
90	13
89	13
88	10
87	14
86	10
85	12
84	18
83	16
82	8
81	10
80	6
79	13
78	6
77	11
76	15
75	10
74	15
73	7
72	18
71	15
70	8
69	18
68	13
67	12
66	15
65	12
64	9
63	12
62	15
61	12
60	16
59	12
58	14
57	18
56	18
55	21
54	13
53	15
52	15
51	13
50	17
49	15
48	14
47	7
46	11
45	11
44	7
43	10
42	16
41	17
40	12
39	10
38	7
37	15
36	15
35	14
34	14
33	17
32	16
31	15
30	14
29	16
28	11
27	9
26	14
25	13
